% demand
num_movements = 32;
loading_factor = [1750, 1050, 1100, 800, 800, 1650, 1000, 1550, 800, 1300, 1050, 1100, 1650, 800, 1800, 1150, 1650, 1300, 1800, 1650, 1050, 1650, 800, 1550, 1450, 1550, 1050, 950, 1850, 1650, 950, 1900];
pickup_time = [0, 0, 0, 0, 0, 1, 2, 2, 2, 2, 2, 2, 3, 3, 4, 4, 4, 4, 4, 4, 6, 6, 6, 6, 6, 6, 9, 9, 9, 9, 9, 9];
delivery_time = [4, 1, 1, 1, 6, 3, 3, 3, 3, 3, 4, 4, 4, 6, 8, 9, 6, 6, 6, 6, 10, 9, 9, 8, 9, 9, 10, 11, 10, 10, 10, 10];

% transporter definition
total_capacity = 11000;
num_decks = 4;
capacity = [3000, 3000, 1000, 4000];

% ways out of decks
num_ways_out = 2;
paths_out = array3d(decks, ways_out, decks, [
% ways out of deck d1
2, 4, 0, 0, 3, 4, 0, 0, 

% ways out of deck d2
4, 0, 0, 0, 0, 0, 0, 0,	

% ways out of deck d3
4, 0, 0, 0, 0, 0, 0, 0,	

% ways out of deck d4
0, 0, 0, 0,	0, 0, 0, 0,	

]);

